(set-option :produce-models true)
(set-logic QF_UF)
(declare-fun p12() Bool)
(declare-fun p28() Bool)
(declare-fun p23() Bool)
(declare-fun p46() Bool)
(declare-fun p69() Bool)
(declare-fun p27() Bool)
(declare-fun p44() Bool)
(declare-fun p20() Bool)
(declare-fun p38() Bool)
(declare-fun p36() Bool)
(declare-fun p40() Bool)
(declare-fun p50() Bool)
(declare-fun p67() Bool)
(declare-fun p9() Bool)
(declare-fun p15() Bool)
(declare-fun p5() Bool)
(declare-fun p19() Bool)
(declare-fun p45() Bool)
(declare-fun p31() Bool)
(declare-fun p55() Bool)
(declare-fun p37() Bool)
(declare-fun p48() Bool)
(declare-fun p59() Bool)
(declare-fun p41() Bool)
(declare-fun p14() Bool)
(declare-fun p24() Bool)
(declare-fun p17() Bool)
(declare-fun p60() Bool)
(declare-fun p32() Bool)
(declare-fun p25() Bool)
(declare-fun p61() Bool)
(declare-fun p52() Bool)
(declare-fun p18() Bool)
(declare-fun p56() Bool)
(declare-fun p2() Bool)
(declare-fun p47() Bool)
(declare-fun p42() Bool)
(declare-fun p11() Bool)
(declare-fun p0() Bool)
(declare-fun p21() Bool)
(declare-fun p68() Bool)
(declare-fun p43() Bool)
(declare-fun p39() Bool)
(declare-fun p58() Bool)
(declare-fun p13() Bool)
(declare-fun p49() Bool)
(declare-fun p57() Bool)
(declare-fun p30() Bool)
(declare-fun p6() Bool)
(declare-fun p16() Bool)
(declare-fun p66() Bool)
(declare-fun p54() Bool)
(declare-fun p63() Bool)
(declare-fun p53() Bool)
(declare-fun p1() Bool)
(declare-fun p3() Bool)
(declare-fun p35() Bool)
(declare-fun p8() Bool)
(declare-fun p4() Bool)
(declare-fun p26() Bool)
(declare-fun p22() Bool)
(declare-fun p33() Bool)
(declare-fun p34() Bool)
(declare-fun p51() Bool)
(declare-fun p29() Bool)
(declare-fun p64() Bool)
(declare-fun p10() Bool)
(declare-fun p62() Bool)
(declare-fun p65() Bool)
(declare-fun p7() Bool)
(assert
(and (or p12 (not p28) p23) (or (not p46) (not p69) (not p27)) (or p44 (not p12) (not p20)) (or (not p46) (not p38) (not p36)) (or (not p40) (not p50) p67) (or (not p9) p15 p5) (or p19 p38 p45) (or (not p31) p55 p37) (or (not p48) p59 (not p41)) (or p19 (not p14) p24) (or (not p17) p60 p37) (or (not p32) (not p25) p61) (or p31 (not p52) (not p18)) (or (not p56) (not p2) p38) (or (not p47) (not p27) (not p42)) (or p11 p50 (not p0)) (or (not p21) p2 p68) (or p43 (not p28) (not p52)) (or (not p12) (not p39) p61) (or (not p5) p67 p9) (or p56 (not p38) (not p9)) (or p21 p58 (not p13)) (or p40 (not p49) p48) (or (not p49) (not p23) (not p40)) (or (not p44) (not p57) (not p30)) (or (not p12) p6 (not p16)) (or p37 p16 p55) (or (not p28) p23 p20) (or p60 (not p47) (not p38)) (or (not p66) (not p44) (not p11)) (or p45 p6 (not p56)) (or p12 p20 p54) (or (not p49) (not p40) p63) (or (not p2) p53 p55) (or p41 p1 p3) (or p30 (not p14) (not p35)) (or (not p9) p35 (not p35)) (or p55 p12 p28) (or p52 p35 p19) (or p0 p40 (not p36)) (or (not p6) (not p54) p11) (or (not p8) p21 p31) (or p44 (not p14) (not p4)) (or (not p26) p11 (not p38)) (or p58 p22 p46) (or p33 p68 p22) (or p34 p26 (not p18)) (or (not p24) (not p51) p66) (or (not p63) p46 p63) (or (not p29) p38 (not p64)) (or (not p39) (not p11) (not p69)) (or (not p2) (not p23) (not p35)) (or p14 p29 (not p57)) (or p23 p61 p13) (or (not p13) p30 p29) (or p51 p47 (not p57)) (or p15 (not p38) (not p46)) (or p39 p14 p31) (or (not p6) p32 (not p12)) (or (not p59) (not p37) p13) (or p54 p58 p3) (or p51 p3 p9) (or p38 p19 p42) (or (not p40) (not p12) p31) (or p4 (not p13) (not p26)) (or p34 p57 p3) (or (not p0) (not p60) (not p5)) (or p15 p44 (not p45)) (or p38 p10 (not p22)) (or p52 (not p54) (not p26)) (or (not p40) (not p55) (not p1)) (or (not p13) (not p64) (not p55)) (or p66 (not p57) p44) (or p64 (not p54) (not p42)) (or p12 p2 (not p10)) (or p21 (not p35) (not p11)) (or p44 p13 p46) (or (not p45) (not p62) p38) (or p66 p25 p41) (or p38 p42 p9) (or (not p10) (not p61) p35) (or p68 (not p61) p34) (or p16 p39 (not p56)) (or (not p3) p21 p12) (or (not p2) p48 p24) (or p48 p34 p49) (or p59 p57 p54) (or (not p43) (not p11) (not p67)) (or p47 (not p4) p29) (or (not p13) (not p9) (not p26)) (or p40 (not p43) p43) (or (not p68) p45 (not p28)) (or p52 p10 (not p52)) (or p68 p69 p8) (or p64 p41 (not p3)) (or (not p52) p24 p15) (or p21 (not p2) p8) (or (not p41) (not p24) (not p32)) (or (not p47) p18 (not p23)) (or (not p12) (not p21) p26) (or (not p58) p63 p23) (or (not p36) p0 p45) (or (not p8) p5 (not p8)) (or (not p22) (not p34) p1) (or (not p31) (not p59) (not p27)) (or (not p33) p27 (not p38)) (or p20 p61 (not p56)) (or p31 (not p42) p56) (or p19 p57 p12) (or p61 p65 (not p41)) (or p37 (not p38) p47) (or p38 (not p22) p0) (or (not p25) p34 (not p0)) (or p24 p0 p47) (or (not p68) p46 (not p59)) (or (not p63) p9 p23) (or (not p16) (not p37) p1) (or (not p2) (not p38) (not p27)) (or (not p50) p46 p9) (or (not p46) (not p25) (not p48)) (or p30 (not p18) p4) (or (not p15) p39 (not p26)) (or p2 (not p55) p36) (or (not p41) p68 p1) (or p4 p54 (not p26)) (or p34 (not p7) p18) (or (not p6) p18 p11) (or p16 (not p48) (not p69)) (or (not p51) p59 (not p16)) (or (not p50) (not p62) (not p12)) (or p34 p17 p5) (or (not p48) (not p36) p11) (or (not p26) p5 p67) (or p4 (not p31) p21) (or p46 (not p49) (not p17)) (or (not p54) p62 p23) (or (not p10) p4 p46) (or p54 (not p1) (not p42)) (or p13 (not p20) (not p28)) (or p15 p26 (not p31)) (or (not p32) p63 (not p30)) (or p39 p16 (not p64)) (or (not p24) p39 (not p46)) (or (not p43) p40 p64) (or p63 p18 p24) (or p53 (not p15) (not p3)) (or p22 p21 p35) (or p24 p64 (not p22)) (or (not p6) (not p6) p34) (or (not p52) p19 (not p4)) (or (not p24) (not p51) p58) (or (not p47) p45 p37) (or p55 p54 (not p55)) (or (not p3) p4 p31) (or (not p5) (not p17) (not p14)) (or (not p51) (not p50) p54) (or p27 p35 p8) (or (not p37) p22 (not p16)) (or (not p51) (not p66) p18) (or p24 (not p66) p11) (or (not p2) (not p14) p58) (or p53 (not p4) (not p16)) (or p64 p42 p37) (or p66 (not p69) (not p49)) (or (not p6) p19 (not p60)) (or (not p26) (not p44) p21) (or (not p66) p59 p32) (or p66 p2 (not p3)) (or p39 p20 p0) (or p56 (not p50) p58) (or p59 (not p46) (not p52)) (or p53 p3 p10) (or p15 (not p58) p57) (or (not p55) p45 p60) (or p30 p42 p11) (or (not p63) p28 (not p50)) (or p13 (not p53) (not p39)) (or (not p51) (not p64) p14) (or (not p69) p30 (not p23)) (or (not p1) p61 p27) (or (not p28) p34 (not p40)) (or (not p34) p22 (not p23)) (or p1 p68 (not p50)) (or p18 p30 p51) (or (not p68) (not p67) (not p17)) (or (not p14) p48 p65) (or p62 p10 p12) (or p56 p66 (not p57)) (or (not p39) (not p29) p11) (or (not p29) (not p17) p45) (or p33 p2 (not p63)) (or (not p57) p66 p58) (or (not p31) (not p18) p66) (or p9 (not p57) (not p31)) (or p44 (not p67) p34) (or (not p6) (not p15) p24) (or (not p62) (not p31) p68) (or (not p8) (not p34) p34) (or p6 p63 (not p52)) (or p24 p17 (not p16)) (or p10 (not p10) p60) (or p35 p10 p24) (or (not p6) p21 p1) (or p33 (not p38) (not p69)) (or (not p69) (not p56) p62) (or p47 (not p13) p45) (or p43 p15 (not p57)) (or p59 p62 p40) (or (not p34) p15 (not p57)) (or (not p60) p13 (not p53)) (or p23 p63 p14) (or p33 (not p24) (not p52)) (or (not p21) p68 (not p43)) (or p48 (not p57) p32) (or (not p8) (not p45) (not p4)) (or (not p45) (not p34) (not p34)) (or p64 (not p25) (not p45)) (or p19 (not p51) (not p38)) (or (not p19) p29 (not p52)) (or (not p55) p19 p36) (or (not p1) p20 p40) (or p67 p13 (not p68)) (or p50 (not p27) (not p47)) (or p13 (not p13) p11) (or p30 p59 p36) (or (not p5) (not p9) (not p41)) (or p40 (not p27) (not p32)) (or (not p3) p51 (not p22)) (or p48 (not p10) (not p58)) (or p60 (not p2) p47) (or (not p29) p63 p68) (or (not p32) p51 (not p17)) (or (not p46) p66 p28) (or (not p66) p58 p8) (or p55 p10 (not p13)) (or p19 (not p42) (not p57)) (or p28 (not p0) (not p14)) (or p56 p5 p30) (or (not p36) (not p27) p34) (or (not p63) (not p18) p51) (or (not p59) (not p64) (not p56)) (or p7 (not p66) (not p12)) (or p66 p69 p23) (or p34 (not p24) (not p27)) (or p28 (not p34) (not p16)) (or (not p35) p62 p39) (or (not p18) p32 p53) (or (not p10) p55 p69) (or p15 p4 p25) (or p63 p61 (not p61)) (or (not p60) p24 p24) (or p32 (not p15) (not p14)) (or p2 (not p47) p36) (or (not p61) (not p57) p43) (or p48 p11 p58) (or p30 p6 p59) (or p0 (not p56) p16) (or (not p55) (not p4) p34) (or (not p69) (not p57) p20) (or p37 p1 (not p64)) (or p27 p53 p65) (or (not p16) (not p40) p36) (or (not p4) p7 (not p12)) (or (not p13) (not p24) (not p18)) (or p14 p21 (not p36)) (or (not p66) p32 (not p10)) (or (not p1) (not p7) p62) (or (not p68) (not p62) p38) (or p9 p54 p51) (or p66 (not p28) (not p46)) (or (not p35) p0 p30) (or p69 p54 (not p25)) (or p37 p7 p66) (or p50 (not p27) (not p55)) (or p60 p66 p58) (or (not p61) (not p46) p8) (or (not p69) p14 p41) (or p3 p49 (not p63)) (or p52 (not p15) p1) (or (not p47) p45 p29) (or (not p64) (not p59) p3) (or (not p14) p60 p20) (or p54 p43 (not p5)) (or p44 p13 (not p61)) (or (not p68) (not p12) p66) (or (not p43) (not p5) p15) (or p14 (not p17) p69) (or p17 (not p1) p33) (or p45 (not p26) p66) (or (not p62) p41 (not p44)) (or p32 (not p48) (not p1)) (or (not p18) p22 (not p36)) (or p7 p20 (not p2)) (or p27 p9 p26) (or p41 (not p55) (not p40)) (or (not p35) p67 p17) (or (not p64) p17 (not p28)))
)
(check-sat)
(get-model)
